g-SiC                                   
   1.00000000000000     
     5.3629214917906234    0.0000000000000000    0.0000000000000000
     2.6814607458953117    4.6442644571393012    0.0000000000000000
     0.0000000000000014    0.0000000000000008   23.2199999999999989
   Si   C 
     3     3
Direct
  0.3333337181284648  0.0000000000000000  0.5000000000000000
  0.0000003847951291  0.6666666666666643  0.5000000000000000
  0.6666670514617934  0.3333333333333357  0.5000000000000000
  0.6666662818715352  0.0000000000000000  0.5000000000000000
  0.9999996152048709  0.3333333333333357  0.5000000000000000
  0.3333329485382066  0.6666666666666643  0.5000000000000000
 
  0.00000000E+00  0.00000000E+00  0.00000000E+00
  0.00000000E+00  0.00000000E+00  0.00000000E+00
  0.00000000E+00  0.00000000E+00  0.00000000E+00
  0.00000000E+00  0.00000000E+00  0.00000000E+00
  0.00000000E+00  0.00000000E+00  0.00000000E+00
  0.00000000E+00  0.00000000E+00  0.00000000E+00
