C4                                      
   1.00000000000000     
     2.4681332416485251    0.0000000000000000    0.0000000000000000
     1.2340666207742459    2.1374660871383258    0.0000000000000000
     0.0000000000000000    0.0000000000000000   12.0000000000000000
   C 
     2
Direct
  0.0000000000000000  0.0000000000000000  0.5000000000000000
  0.3333333430821597  0.3333333434716295  0.5000000000000000
 
  0.00000000E+00  0.00000000E+00  0.00000000E+00
  0.00000000E+00  0.00000000E+00  0.00000000E+00
