g-SiC
   1.000
    5.3629214917906234    0.0000000000000000    0.0000000000000000
    2.6814607458953117    4.6442644571393012    0.0000000000000000
    0.0000000000000014    0.0000000000000008   23.2199999999999989
   Si   C 
    3    3
Direct
    0.3333337181284617    0.0000000000000000    0.5000000000000000    Si1
    0.0000003847951260    0.6666666666666643    0.5000000000000000    Si2
    0.6666670514617903    0.3333333333333357    0.5000000000000000    Si3
    0.6666662818715383    0.0000000000000000    0.5000000000000000     C1
   -0.0000003847951261    0.3333333333333357    0.5000000000000000     C2
    0.3333329485382097    0.6666666666666643    0.5000000000000000     C3
