0.030  18  18   1   37  0.030  132    3   48   28   56           # Parameters to Generate KPOINTS (Do NOT Edit This Line)
   169
Reciprocal lattice
    0.00000000000000    0.00000000000000    0.00000000000000     1
    0.05555555555556    0.00000000000000    0.00000000000000     6
    0.11111111111111    0.00000000000000    0.00000000000000     6
    0.16666666666667    0.00000000000000    0.00000000000000     6
    0.22222222222222    0.00000000000000    0.00000000000000     6
    0.27777777777778    0.00000000000000    0.00000000000000     6
    0.33333333333333    0.00000000000000    0.00000000000000     6
    0.38888888888889    0.00000000000000    0.00000000000000     6
    0.44444444444444    0.00000000000000    0.00000000000000     6
    0.50000000000000    0.00000000000000    0.00000000000000     3
    0.11111111111111    0.05555555555556    0.00000000000000     6
    0.16666666666667    0.05555555555556    0.00000000000000    12
    0.22222222222222    0.05555555555556    0.00000000000000    12
    0.27777777777778    0.05555555555556    0.00000000000000    12
    0.33333333333333    0.05555555555556    0.00000000000000    12
    0.38888888888889    0.05555555555556    0.00000000000000    12
    0.44444444444444    0.05555555555556    0.00000000000000    12
    0.50000000000000    0.05555555555556    0.00000000000000    12
    0.22222222222222    0.11111111111111    0.00000000000000     6
    0.27777777777778    0.11111111111111    0.00000000000000    12
    0.33333333333333    0.11111111111111    0.00000000000000    12
    0.38888888888889    0.11111111111111    0.00000000000000    12
    0.44444444444444    0.11111111111111    0.00000000000000    12
    0.50000000000000    0.11111111111111    0.00000000000000    12
   -0.44444444444444    0.11111111111111    0.00000000000000     6
    0.33333333333333    0.16666666666667    0.00000000000000     6
    0.38888888888889    0.16666666666667    0.00000000000000    12
    0.44444444444444    0.16666666666667    0.00000000000000    12
    0.50000000000000    0.16666666666667    0.00000000000000    12
   -0.44444444444444    0.16666666666667    0.00000000000000    12
    0.44444444444444    0.22222222222222    0.00000000000000     6
    0.50000000000000    0.22222222222222    0.00000000000000    12
   -0.44444444444444    0.22222222222222    0.00000000000000    12
   -0.38888888888889    0.22222222222222    0.00000000000000     6
   -0.44444444444444    0.27777777777778    0.00000000000000     6
   -0.38888888888889    0.27777777777778    0.00000000000000    12
   -0.33333333333333    0.33333333333333    0.00000000000000     2
    0.00000000000000    0.00000000000000    0.00000000000000     0
    0.01063829787234    0.01063829787234    0.00000000000000     0
    0.02127659574468    0.02127659574468    0.00000000000000     0
    0.03191489361702    0.03191489361702    0.00000000000000     0
    0.04255319148936    0.04255319148936    0.00000000000000     0
    0.05319148936170    0.05319148936170    0.00000000000000     0
    0.06382978723404    0.06382978723404    0.00000000000000     0
    0.07446808510638    0.07446808510638    0.00000000000000     0
    0.08510638297872    0.08510638297872    0.00000000000000     0
    0.09574468085106    0.09574468085106    0.00000000000000     0
    0.10638297872340    0.10638297872340    0.00000000000000     0
    0.11702127659574    0.11702127659574    0.00000000000000     0
    0.12765957446809    0.12765957446809    0.00000000000000     0
    0.13829787234043    0.13829787234043    0.00000000000000     0
    0.14893617021277    0.14893617021277    0.00000000000000     0
    0.15957446808511    0.15957446808511    0.00000000000000     0
    0.17021276595745    0.17021276595745    0.00000000000000     0
    0.18085106382979    0.18085106382979    0.00000000000000     0
    0.19148936170213    0.19148936170213    0.00000000000000     0
    0.20212765957447    0.20212765957447    0.00000000000000     0
    0.21276595744681    0.21276595744681    0.00000000000000     0
    0.22340425531915    0.22340425531915    0.00000000000000     0
    0.23404255319149    0.23404255319149    0.00000000000000     0
    0.24468085106383    0.24468085106383    0.00000000000000     0
    0.25531914893617    0.25531914893617    0.00000000000000     0
    0.26595744680851    0.26595744680851    0.00000000000000     0
    0.27659574468085    0.27659574468085    0.00000000000000     0
    0.28723404255319    0.28723404255319    0.00000000000000     0
    0.29787234042553    0.29787234042553    0.00000000000000     0
    0.30851063829787    0.30851063829787    0.00000000000000     0
    0.31914893617021    0.31914893617021    0.00000000000000     0
    0.32978723404255    0.32978723404255    0.00000000000000     0
    0.34042553191489    0.34042553191489    0.00000000000000     0
    0.35106382978723    0.35106382978723    0.00000000000000     0
    0.36170212765957    0.36170212765957    0.00000000000000     0
    0.37234042553191    0.37234042553191    0.00000000000000     0
    0.38297872340426    0.38297872340426    0.00000000000000     0
    0.39361702127660    0.39361702127660    0.00000000000000     0
    0.40425531914894    0.40425531914894    0.00000000000000     0
    0.41489361702128    0.41489361702128    0.00000000000000     0
    0.42553191489362    0.42553191489362    0.00000000000000     0
    0.43617021276596    0.43617021276596    0.00000000000000     0
    0.44680851063830    0.44680851063830    0.00000000000000     0
    0.45744680851064    0.45744680851064    0.00000000000000     0
    0.46808510638298    0.46808510638298    0.00000000000000     0
    0.47872340425532    0.47872340425532    0.00000000000000     0
    0.48936170212766    0.48936170212766    0.00000000000000     0
    0.50000000000000    0.50000000000000    0.00000000000000     0
    0.50000000000000    0.50000000000000    0.00000000000000     0
    0.49382716049259    0.50617283950741    0.00000000000000     0
    0.48765432098519    0.51234567901481    0.00000000000000     0
    0.48148148147778    0.51851851852222    0.00000000000000     0
    0.47530864197037    0.52469135802963    0.00000000000000     0
    0.46913580246296    0.53086419753704    0.00000000000000     0
    0.46296296295556    0.53703703704444    0.00000000000000     0
    0.45679012344815    0.54320987655185    0.00000000000000     0
    0.45061728394074    0.54938271605926    0.00000000000000     0
    0.44444444443333    0.55555555556667    0.00000000000000     0
    0.43827160492593    0.56172839507407    0.00000000000000     0
    0.43209876541852    0.56790123458148    0.00000000000000     0
    0.42592592591111    0.57407407408889    0.00000000000000     0
    0.41975308640370    0.58024691359630    0.00000000000000     0
    0.41358024689630    0.58641975310370    0.00000000000000     0
    0.40740740738889    0.59259259261111    0.00000000000000     0
    0.40123456788148    0.59876543211852    0.00000000000000     0
    0.39506172837407    0.60493827162593    0.00000000000000     0
    0.38888888886667    0.61111111113333    0.00000000000000     0
    0.38271604935926    0.61728395064074    0.00000000000000     0
    0.37654320985185    0.62345679014815    0.00000000000000     0
    0.37037037034444    0.62962962965556    0.00000000000000     0
    0.36419753083704    0.63580246916296    0.00000000000000     0
    0.35802469132963    0.64197530867037    0.00000000000000     0
    0.35185185182222    0.64814814817778    0.00000000000000     0
    0.34567901231481    0.65432098768519    0.00000000000000     0
    0.33950617280741    0.66049382719259    0.00000000000000     0
    0.33333333330000    0.66666666670000    0.00000000000000     0
    0.33333333330000    0.66666666670000    0.00000000000000     0
    0.32727272724000    0.65454545457818    0.00000000000000     0
    0.32121212118000    0.64242424245636    0.00000000000000     0
    0.31515151512000    0.63030303033455    0.00000000000000     0
    0.30909090906000    0.61818181821273    0.00000000000000     0
    0.30303030300000    0.60606060609091    0.00000000000000     0
    0.29696969694000    0.59393939396909    0.00000000000000     0
    0.29090909088000    0.58181818184727    0.00000000000000     0
    0.28484848482000    0.56969696972545    0.00000000000000     0
    0.27878787876000    0.55757575760364    0.00000000000000     0
    0.27272727270000    0.54545454548182    0.00000000000000     0
    0.26666666664000    0.53333333336000    0.00000000000000     0
    0.26060606058000    0.52121212123818    0.00000000000000     0
    0.25454545452000    0.50909090911636    0.00000000000000     0
    0.24848484846000    0.49696969699455    0.00000000000000     0
    0.24242424240000    0.48484848487273    0.00000000000000     0
    0.23636363634000    0.47272727275091    0.00000000000000     0
    0.23030303028000    0.46060606062909    0.00000000000000     0
    0.22424242422000    0.44848484850727    0.00000000000000     0
    0.21818181816000    0.43636363638545    0.00000000000000     0
    0.21212121210000    0.42424242426364    0.00000000000000     0
    0.20606060604000    0.41212121214182    0.00000000000000     0
    0.19999999998000    0.40000000002000    0.00000000000000     0
    0.19393939392000    0.38787878789818    0.00000000000000     0
    0.18787878786000    0.37575757577636    0.00000000000000     0
    0.18181818180000    0.36363636365455    0.00000000000000     0
    0.17575757574000    0.35151515153273    0.00000000000000     0
    0.16969696968000    0.33939393941091    0.00000000000000     0
    0.16363636362000    0.32727272728909    0.00000000000000     0
    0.15757575756000    0.31515151516727    0.00000000000000     0
    0.15151515150000    0.30303030304545    0.00000000000000     0
    0.14545454544000    0.29090909092364    0.00000000000000     0
    0.13939393938000    0.27878787880182    0.00000000000000     0
    0.13333333332000    0.26666666668000    0.00000000000000     0
    0.12727272726000    0.25454545455818    0.00000000000000     0
    0.12121212120000    0.24242424243636    0.00000000000000     0
    0.11515151514000    0.23030303031455    0.00000000000000     0
    0.10909090908000    0.21818181819273    0.00000000000000     0
    0.10303030302000    0.20606060607091    0.00000000000000     0
    0.09696969696000    0.19393939394909    0.00000000000000     0
    0.09090909090000    0.18181818182727    0.00000000000000     0
    0.08484848484000    0.16969696970545    0.00000000000000     0
    0.07878787878000    0.15757575758364    0.00000000000000     0
    0.07272727272000    0.14545454546182    0.00000000000000     0
    0.06666666666000    0.13333333334000    0.00000000000000     0
    0.06060606060000    0.12121212121818    0.00000000000000     0
    0.05454545454000    0.10909090909636    0.00000000000000     0
    0.04848484848000    0.09696969697455    0.00000000000000     0
    0.04242424242000    0.08484848485273    0.00000000000000     0
    0.03636363636000    0.07272727273091    0.00000000000000     0
    0.03030303030000    0.06060606060909    0.00000000000000     0
    0.02424242424000    0.04848484848727    0.00000000000000     0
    0.01818181818000    0.03636363636545    0.00000000000000     0
    0.01212121212000    0.02424242424364    0.00000000000000     0
    0.00606060606000    0.01212121212182    0.00000000000000     0
   -0.00000000000000    0.00000000000000    0.00000000000000     0
