 Graphene                               
   1.00000000000000     
     2.4682111894636849    0.0000000000000000    0.0000000000000000
     1.2341055947318424    2.1375321031307841    0.0000000000000000
     0.0000000000000006    0.0000000000000004   15.0000000000000000
   C 
     2
Direct
  0.6666674478549809  0.6666651052900419  0.5000000000000000
 -0.0000007808549797  0.0000015617099593  0.5000000000000000
 
  0.00000000E+00  0.00000000E+00  0.00000000E+00
  0.00000000E+00  0.00000000E+00  0.00000000E+00
