# C16
1.000000
      7.34210000        0.00000000        0.00000000
      0.00000000        7.34290000        0.00000000
      0.00000000        0.00000000       15.00000000
 C
    16
Cartesian
      2.47846535        0.71728384        7.50000000
      4.96198207        0.71905348        7.50000000
      4.45291757        2.03589245        7.50000000
      2.98728023        2.03484976        7.50000000
      0.66463626        2.53120043        7.50000000
      1.98154468        3.03980640        7.50000000
      5.45921111        3.04173758        7.50000000
      6.77548077        2.53313896        7.50000000
      5.45978380        4.50839374        7.50000000
      6.77672159        5.01701440        7.50000000
      4.45409231        5.51343849        7.50000000
      4.96293655        6.83100441        7.50000000
      2.98838154        5.51233706        7.50000000
      2.47947856        6.82919072        7.50000000
      1.98224953        4.50645522        7.50000000
      0.66586973        5.01488496        7.50000000
